(set-logic QF_UF)
(declare-fun A0 () Bool)
(declare-fun A1 () Bool)
(declare-fun A3 () Bool)
(declare-fun A4 () Bool)
(declare-fun A5 () Bool)
(declare-fun A6 () Bool)
(declare-fun A7 () Bool)
(declare-fun A8 () Bool)
(declare-fun A9 () Bool)
(declare-fun A10 () Bool)
(declare-fun A12 () Bool)
(declare-fun A13 () Bool)
(declare-fun A14 () Bool)
(declare-fun A15 () Bool)
(declare-fun A16 () Bool)
(declare-fun A17 () Bool)
(declare-fun A18 () Bool)
(declare-fun A19 () Bool)
(declare-fun A20 () Bool)
(declare-fun A21 () Bool)
(declare-fun A22 () Bool)
(declare-fun A23 () Bool)
(declare-fun A24 () Bool)
(assert (let ((.def_0 (not A7))) (let ((.def_1 (= A7 .def_0))) (let ((.def_2 (or A13 A12))) (let ((.def_3 (or .def_2 .def_1))) (let ((.def_4 (or A6 .def_0))) (let ((.def_5 (or A7 A4))) (let ((.def_6 (not .def_5))) (let ((.def_7 (and .def_6 .def_4))) (let ((.def_8 (and .def_7 .def_3))) (let ((.def_9 (not A18))) (let ((.def_10 (= A1 .def_9))) (let ((.def_11 (and A16 A5))) (let ((.def_12 (not .def_11))) (let ((.def_13 (and .def_12 .def_10))) (let ((.def_14 (not A9))) (let ((.def_15 (and .def_14 A24))) (let ((.def_16 (not A14))) (let ((.def_17 (or A21 .def_16))) (let ((.def_18 (not .def_17))) (let ((.def_19 (= .def_18 .def_15))) (let ((.def_20 (or .def_19 .def_13))) (let ((.def_21 (or .def_20 .def_8))) (let ((.def_22 (not A4))) (let ((.def_23 (not A15))) (let ((.def_24 (or .def_23 .def_22))) (let ((.def_25 (not A19))) (let ((.def_26 (and .def_25 A14))) (let ((.def_27 (or .def_26 .def_24))) (let ((.def_28 (not A24))) (let ((.def_29 (or .def_28 A6))) (let ((.def_30 (not .def_29))) (let ((.def_31 (not A8))) (let ((.def_32 (and .def_31 A1))) (let ((.def_33 (not .def_32))) (let ((.def_34 (or .def_33 .def_30))) (let ((.def_35 (not .def_34))) (let ((.def_36 (and .def_35 .def_27))) (let ((.def_37 (not .def_36))) (let ((.def_38 (not A17))) (let ((.def_39 (or .def_38 A12))) (let ((.def_40 (and A13 .def_0))) (let ((.def_41 (and .def_40 .def_39))) (let ((.def_42 (not A0))) (let ((.def_43 (and .def_16 .def_42))) (let ((.def_44 (or .def_28 .def_25))) (let ((.def_45 (not .def_44))) (let ((.def_46 (= .def_45 .def_43))) (let ((.def_47 (not .def_46))) (let ((.def_48 (and .def_47 .def_41))) (let ((.def_49 (or .def_48 .def_37))) (let ((.def_50 (not .def_49))) (let ((.def_51 (or .def_50 .def_21))) (let ((.def_52 (or A13 A21))) (let ((.def_53 (and A18 A18))) (let ((.def_54 (not .def_53))) (let ((.def_55 (or .def_54 .def_52))) (let ((.def_56 (and A12 .def_0))) (let ((.def_57 (not A5))) (let ((.def_58 (or .def_57 A19))) (let ((.def_59 (and .def_58 .def_56))) (let ((.def_60 (not .def_59))) (let ((.def_61 (or .def_60 .def_55))) (let ((.def_62 (not .def_61))) (let ((.def_63 (not A21))) (let ((.def_64 (or A20 .def_63))) (let ((.def_65 (not .def_64))) (let ((.def_66 (or A18 A8))) (let ((.def_67 (not .def_66))) (let ((.def_68 (= .def_67 .def_65))) (let ((.def_69 (not .def_68))) (let ((.def_70 (or A14 .def_31))) (let ((.def_71 (not .def_70))) (let ((.def_72 (or A7 A20))) (let ((.def_73 (not .def_72))) (let ((.def_74 (or .def_73 .def_71))) (let ((.def_75 (and .def_74 .def_69))) (let ((.def_76 (and .def_75 .def_62))) (let ((.def_77 (not A20))) (let ((.def_78 (not A1))) (let ((.def_79 (or .def_78 .def_77))) (let ((.def_80 (or A23 A9))) (let ((.def_81 (not .def_80))) (let ((.def_82 (or .def_81 .def_79))) (let ((.def_83 (not .def_82))) (let ((.def_84 (and .def_28 .def_22))) (let ((.def_85 (and A6 A17))) (let ((.def_86 (or .def_85 .def_84))) (let ((.def_87 (and .def_86 .def_83))) (let ((.def_88 (not A3))) (let ((.def_89 (= .def_88 A20))) (let ((.def_90 (= .def_88 A10))) (let ((.def_91 (or .def_90 .def_89))) (let ((.def_92 (= A23 .def_23))) (let ((.def_93 (and A5 A22))) (let ((.def_94 (and .def_93 .def_92))) (let ((.def_95 (not .def_94))) (let ((.def_96 (or .def_95 .def_91))) (let ((.def_97 (and .def_96 .def_87))) (let ((.def_98 (or .def_97 .def_76))) (let ((.def_99 (and .def_98 .def_51))) (let ((.def_100 (not .def_99))) .def_100))))))))))))))))))))))))))))))))))))))))))))))))))))))))))))))))))))))))))))))))))))))))))))))))))))))
(check-sat)
